Test: battleship-14-26-sat.cnf
Options: -no-inverting-opt -activity-look-freq=1
WARNING: for repeatability, setting FPU to use double precision
============================[ Problem Statistics ]=============================
|                                                                             |
|  Number of symmetries:           17                                         |
|  Number of invertingSyms:         0                                         |
|  Number of variables:           364                                         |
|  Number of clauses:            2562                                         |
|  Parse time:                   0.00 s                                       |
|                                                                             |
============================[ Search Statistics ]==============================
| Conflicts |          ORIGINAL         |          LEARNT          | Progress |
|           |    Vars  Clauses Literals |    Limit  Clauses Lit/Cl |          |
===============================================================================
|       100 |     364     2562     9828 |      939      108    160 |  0.001 % |
|       250 |     364     2562     9828 |     1033      297    127 |  0.001 % |
|       475 |     364     2562     9828 |     1136      570    128 |  0.001 % |
|       812 |     364     2562     9828 |     1250     1006    127 |  0.001 % |
|      1318 |     364     2562     9828 |     1375      957    128 |  0.001 % |
|      2077 |     364     2562     9828 |     1512     1230    125 |  0.001 % |
|      3216 |     364     2562     9828 |     1664     1058    120 |  0.001 % |
|      4924 |     364     2562     9828 |     1830     1565    133 |  0.001 % |
|      7486 |     364     2562     9828 |     2013     1805    148 |  0.001 % |
|     11330 |     364     2562     9828 |     2215     1495    154 |  0.001 % |
|     17096 |     364     2562     9828 |     2436     1831    153 |  0.001 % |
|     25745 |     364     2562     9828 |     2680     1573    138 |  0.001 % |
|     38719 |     364     2562     9828 |     2948     1782    155 |  0.001 % |
|     58180 |     364     2562     9828 |     3243     2361    130 |  0.001 % |
|     87372 |     364     2562     9828 |     3567     3327    149 |  0.001 % |
|    131161 |     364     2562     9828 |     3924     2376    157 |  0.001 % |
|    196845 |     364     2562     9828 |     4316     2359    137 |  0.001 % |
|    295371 |     364     2562     9828 |     4748     3429    151 |  0.001 % |
|    443160 |     364     2562     9828 |     5222     3798    154 |  0.001 % |
|    664843 |     364     2562     9828 |     5745     2679    150 |  0.001 % |
|    997368 |     364     2562     9828 |     6319     5403    143 |  0.001 % |
|   1496156 |     364     2562     9828 |     6951     3507    139 |  0.001 % |
===============================================================================
restarts              : 3069
conflicts             : 1570784        (11364 /sec)
symconflicts          : 111294         (805 /sec)
decisions             : 3213318        (0.00 % random) (23246 /sec)
propagations          : 113082840      (818085 /sec)
sympropagations       : 462435         (3345 /sec)
conflict literals     : 249801938      (5.49 % deleted)
literals     : 249801938      (5.49 % deleted)

HEURISTIC USAGES
random                : 0           
activity w/ lookahead : 3213317     
activity no lookahead : 0           
original sp           : 0           
sym count             : 0           

Memory used           : 28.00 MB
CPU time              : 138.229 s

SATISFIABLE
